(set-logic QF_UF)
(declare-fun A0 () Bool)
(declare-fun A2 () Bool)
(declare-fun A3 () Bool)
(declare-fun A4 () Bool)
(declare-fun A5 () Bool)
(declare-fun A6 () Bool)
(declare-fun A8 () Bool)
(declare-fun A9 () Bool)
(declare-fun A10 () Bool)
(declare-fun A11 () Bool)
(declare-fun A12 () Bool)
(declare-fun A13 () Bool)
(declare-fun A14 () Bool)
(declare-fun A15 () Bool)
(declare-fun A16 () Bool)
(declare-fun A17 () Bool)
(declare-fun A18 () Bool)
(declare-fun A19 () Bool)
(declare-fun A20 () Bool)
(declare-fun A21 () Bool)
(declare-fun A22 () Bool)
(declare-fun A23 () Bool)
(declare-fun A24 () Bool)
(assert (let ((.def_0 (or A20 A10))) (let ((.def_1 (not .def_0))) (let ((.def_2 (= A22 A13))) (let ((.def_3 (or .def_2 .def_1))) (let ((.def_4 (not .def_3))) (let ((.def_5 (not A15))) (let ((.def_6 (not A6))) (let ((.def_7 (or .def_6 .def_5))) (let ((.def_8 (or A22 .def_6))) (let ((.def_9 (not .def_8))) (let ((.def_10 (and .def_9 .def_7))) (let ((.def_11 (not .def_10))) (let ((.def_12 (and .def_11 .def_4))) (let ((.def_13 (not .def_12))) (let ((.def_14 (or A8 A2))) (let ((.def_15 (not .def_14))) (let ((.def_16 (or A14 .def_6))) (let ((.def_17 (not .def_16))) (let ((.def_18 (or .def_17 .def_15))) (let ((.def_19 (not .def_18))) (let ((.def_20 (not A2))) (let ((.def_21 (and A22 .def_20))) (let ((.def_22 (not A23))) (let ((.def_23 (or .def_5 .def_22))) (let ((.def_24 (not .def_23))) (let ((.def_25 (and .def_24 .def_21))) (let ((.def_26 (not .def_25))) (let ((.def_27 (and .def_26 .def_19))) (let ((.def_28 (and .def_27 .def_13))) (let ((.def_29 (not A19))) (let ((.def_30 (and .def_29 .def_6))) (let ((.def_31 (not .def_30))) (let ((.def_32 (= A16 A9))) (let ((.def_33 (and .def_32 .def_31))) (let ((.def_34 (or A11 .def_6))) (let ((.def_35 (not .def_34))) (let ((.def_36 (not A3))) (let ((.def_37 (not A8))) (let ((.def_38 (or .def_37 .def_36))) (let ((.def_39 (and .def_38 .def_35))) (let ((.def_40 (or .def_39 .def_33))) (let ((.def_41 (not A9))) (let ((.def_42 (and .def_41 A9))) (let ((.def_43 (and .def_42 .def_14))) (let ((.def_44 (and .def_22 .def_20))) (let ((.def_45 (not .def_44))) (let ((.def_46 (not A14))) (let ((.def_47 (and A4 .def_46))) (let ((.def_48 (and .def_47 .def_45))) (let ((.def_49 (not .def_48))) (let ((.def_50 (or .def_49 .def_43))) (let ((.def_51 (not .def_50))) (let ((.def_52 (and .def_51 .def_40))) (let ((.def_53 (and .def_52 .def_28))) (let ((.def_54 (not .def_53))) (let ((.def_55 (not A16))) (let ((.def_56 (not A10))) (let ((.def_57 (and .def_56 .def_55))) (let ((.def_58 (not .def_57))) (let ((.def_59 (not A13))) (let ((.def_60 (or A2 .def_59))) (let ((.def_61 (and .def_60 .def_58))) (let ((.def_62 (not .def_61))) (let ((.def_63 (not A17))) (let ((.def_64 (= A19 .def_63))) (let ((.def_65 (not .def_64))) (let ((.def_66 (and .def_56 .def_59))) (let ((.def_67 (and .def_66 .def_65))) (let ((.def_68 (or .def_67 .def_62))) (let ((.def_69 (not .def_68))) (let ((.def_70 (not A18))) (let ((.def_71 (or A18 .def_70))) (let ((.def_72 (not .def_71))) (let ((.def_73 (not A12))) (let ((.def_74 (= .def_73 A21))) (let ((.def_75 (not .def_74))) (let ((.def_76 (or .def_75 .def_72))) (let ((.def_77 (not .def_76))) (let ((.def_78 (and .def_55 .def_70))) (let ((.def_79 (not .def_78))) (let ((.def_80 (not A22))) (let ((.def_81 (or .def_80 .def_55))) (let ((.def_82 (and .def_81 .def_79))) (let ((.def_83 (and .def_82 .def_77))) (let ((.def_84 (or .def_83 .def_69))) (let ((.def_85 (not .def_84))) (let ((.def_86 (not A11))) (let ((.def_87 (and .def_86 .def_6))) (let ((.def_88 (not .def_87))) (let ((.def_89 (not A0))) (let ((.def_90 (not A21))) (let ((.def_91 (or .def_90 .def_89))) (let ((.def_92 (not .def_91))) (let ((.def_93 (and .def_92 .def_88))) (let ((.def_94 (not .def_93))) (let ((.def_95 (not A5))) (let ((.def_96 (= .def_95 A4))) (let ((.def_97 (not A4))) (let ((.def_98 (and .def_97 .def_6))) (let ((.def_99 (and .def_98 .def_96))) (let ((.def_100 (not .def_99))) (let ((.def_101 (and .def_100 .def_94))) (let ((.def_102 (not A24))) (let ((.def_103 (or A23 .def_102))) (let ((.def_104 (not .def_103))) (let ((.def_105 (or .def_36 .def_41))) (let ((.def_106 (not .def_105))) (let ((.def_107 (and .def_106 .def_104))) (let ((.def_108 (or A6 .def_73))) (let ((.def_109 (or .def_90 .def_20))) (let ((.def_110 (or .def_109 .def_108))) (let ((.def_111 (or .def_110 .def_107))) (let ((.def_112 (and .def_111 .def_101))) (let ((.def_113 (not .def_112))) (let ((.def_114 (or .def_113 .def_85))) (let ((.def_115 (not .def_114))) (let ((.def_116 (or .def_115 .def_54))) .def_116))))))))))))))))))))))))))))))))))))))))))))))))))))))))))))))))))))))))))))))))))))))))))))))))))))))))))))))))))))))
(check-sat)
